\ENCODING=ISO-8859-1
\Problem name: IloCplex

Minimize
 obj: - X(1) - X(2) - X(3) - X(4) - X(5) - X(6) - X(7) - X(8) - X(9) - X(10)
      - X(11) - X(12) - X(13) - X(14) - X(15) - X(16) - X(17) - X(18) - X(19)
      - X(20) - X(21)
Subject To
 DEM(0):  - X(1) - X(2) - X(3) + X(21)  = 0
 DEM(1):  X(1) - X(4) - X(5)  = 0
 DEM(2):  X(2) - X(6) - X(7) - X(8)  = 0
 DEM(3):  X(3) - X(9) - X(10)  = 0
 DEM(4):  X(4) + X(6) - X(11) - X(12)  = 0
 DEM(5):  X(5) + X(7) + X(9) - X(13) - X(14) - X(15)  = 0
 DEM(6):  X(8) + X(10) - X(16) - X(17)  = 0
 DEM(7):  X(11) + X(13) - X(18)  = 0
 DEM(8):  X(12) + X(14) + X(16) - X(19)  = 0
 DEM(9):  X(15) + X(17) - X(20)  = 0
 DEM(10): X(18) + X(19) + X(20) - X(21)  = 0
Bounds
 0 <= X(1) <= 245
 0 <= X(2) <= 270
 0 <= X(3) <= 260
 0 <= X(4) <= 130
 0 <= X(5) <= 115
 0 <= X(6) <= 70
 0 <= X(7) <= 90
 0 <= X(8) <= 110
 0 <= X(9) <= 140
 0 <= X(10) <= 120
 0 <= X(11) <= 110
 0 <= X(12) <= 85
 0 <= X(13) <= 130
 0 <= X(14) <= 95
 0 <= X(15) <= 85
 0 <= X(16) <= 130
 0 <= X(17) <= 160
 0 <= X(18) <= 220
 0 <= X(19) <= 330
 0 <= X(20) <= 240
 0 <= X(21) <= 790
End
